files/upTests/expr2/0006.eprime.solution
language ESSENCE' 1.0
$ minion Nodes: 2
$ minion TotalTime: 0.003023
$ Savile Row TotalTime: 1.376
letting x_SetOccurrence be [false, false, true, false, false, false, false, false, false, true, false, false, false, false, false;int(0..14)]
letting x_SetExplicitVarSizeWithDefault be [2, 9;int(1..2)]
